p cnf 176 1628
1 2 3 4 0
5 6 7 8 0
9 10 11 12 0
13 14 15 16 0
17 18 19 20 0
21 22 23 24 0
25 26 27 28 0
29 30 31 32 0
33 34 35 36 0
37 38 39 40 0
41 42 43 44 0
45 46 47 48 0
49 50 51 52 0
53 54 55 56 0
57 58 59 60 0
61 62 63 64 0
65 66 67 68 0
69 70 71 72 0
73 74 75 76 0
77 78 79 80 0
81 82 83 84 0
85 86 87 88 0
89 90 91 92 0
93 94 95 96 0
97 98 99 100 0
101 102 103 104 0
105 106 107 108 0
109 110 111 112 0
113 114 115 116 0
117 118 119 120 0
121 122 123 124 0
125 126 127 128 0
129 130 131 132 0
133 134 135 136 0
137 138 139 140 0
141 142 143 144 0
145 146 147 148 0
149 150 151 152 0
153 154 155 156 0
157 158 159 160 0
161 162 163 164 0
165 166 167 168 0
169 170 171 172 0
173 174 175 176 0
-2 -1 0
-3 -1 0
-3 -2 0
-4 -1 0
-4 -2 0
-4 -3 0
-6 -5 0
-7 -5 0
-7 -6 0
-8 -5 0
-8 -6 0
-8 -7 0
-10 -9 0
-11 -9 0
-11 -10 0
-12 -9 0
-12 -10 0
-12 -11 0
-14 -13 0
-15 -13 0
-15 -14 0
-16 -13 0
-16 -14 0
-16 -15 0
-18 -17 0
-19 -17 0
-19 -18 0
-20 -17 0
-20 -18 0
-20 -19 0
-22 -21 0
-23 -21 0
-23 -22 0
-24 -21 0
-24 -22 0
-24 -23 0
-26 -25 0
-27 -25 0
-27 -26 0
-28 -25 0
-28 -26 0
-28 -27 0
-30 -29 0
-31 -29 0
-31 -30 0
-32 -29 0
-32 -30 0
-32 -31 0
-34 -33 0
-35 -33 0
-35 -34 0
-36 -33 0
-36 -34 0
-36 -35 0
-38 -37 0
-39 -37 0
-39 -38 0
-40 -37 0
-40 -38 0
-40 -39 0
-42 -41 0
-43 -41 0
-43 -42 0
-44 -41 0
-44 -42 0
-44 -43 0
-46 -45 0
-47 -45 0
-47 -46 0
-48 -45 0
-48 -46 0
-48 -47 0
-50 -49 0
-51 -49 0
-51 -50 0
-52 -49 0
-52 -50 0
-52 -51 0
-54 -53 0
-55 -53 0
-55 -54 0
-56 -53 0
-56 -54 0
-56 -55 0
-58 -57 0
-59 -57 0
-59 -58 0
-60 -57 0
-60 -58 0
-60 -59 0
-62 -61 0
-63 -61 0
-63 -62 0
-64 -61 0
-64 -62 0
-64 -63 0
-66 -65 0
-67 -65 0
-67 -66 0
-68 -65 0
-68 -66 0
-68 -67 0
-70 -69 0
-71 -69 0
-71 -70 0
-72 -69 0
-72 -70 0
-72 -71 0
-74 -73 0
-75 -73 0
-75 -74 0
-76 -73 0
-76 -74 0
-76 -75 0
-78 -77 0
-79 -77 0
-79 -78 0
-80 -77 0
-80 -78 0
-80 -79 0
-82 -81 0
-83 -81 0
-83 -82 0
-84 -81 0
-84 -82 0
-84 -83 0
-86 -85 0
-87 -85 0
-87 -86 0
-88 -85 0
-88 -86 0
-88 -87 0
-90 -89 0
-91 -89 0
-91 -90 0
-92 -89 0
-92 -90 0
-92 -91 0
-94 -93 0
-95 -93 0
-95 -94 0
-96 -93 0
-96 -94 0
-96 -95 0
-98 -97 0
-99 -97 0
-99 -98 0
-100 -97 0
-100 -98 0
-100 -99 0
-102 -101 0
-103 -101 0
-103 -102 0
-104 -101 0
-104 -102 0
-104 -103 0
-106 -105 0
-107 -105 0
-107 -106 0
-108 -105 0
-108 -106 0
-108 -107 0
-110 -109 0
-111 -109 0
-111 -110 0
-112 -109 0
-112 -110 0
-112 -111 0
-114 -113 0
-115 -113 0
-115 -114 0
-116 -113 0
-116 -114 0
-116 -115 0
-118 -117 0
-119 -117 0
-119 -118 0
-120 -117 0
-120 -118 0
-120 -119 0
-122 -121 0
-123 -121 0
-123 -122 0
-124 -121 0
-124 -122 0
-124 -123 0
-126 -125 0
-127 -125 0
-127 -126 0
-128 -125 0
-128 -126 0
-128 -127 0
-130 -129 0
-131 -129 0
-131 -130 0
-132 -129 0
-132 -130 0
-132 -131 0
-134 -133 0
-135 -133 0
-135 -134 0
-136 -133 0
-136 -134 0
-136 -135 0
-138 -137 0
-139 -137 0
-139 -138 0
-140 -137 0
-140 -138 0
-140 -139 0
-142 -141 0
-143 -141 0
-143 -142 0
-144 -141 0
-144 -142 0
-144 -143 0
-146 -145 0
-147 -145 0
-147 -146 0
-148 -145 0
-148 -146 0
-148 -147 0
-150 -149 0
-151 -149 0
-151 -150 0
-152 -149 0
-152 -150 0
-152 -151 0
-154 -153 0
-155 -153 0
-155 -154 0
-156 -153 0
-156 -154 0
-156 -155 0
-158 -157 0
-159 -157 0
-159 -158 0
-160 -157 0
-160 -158 0
-160 -159 0
-162 -161 0
-163 -161 0
-163 -162 0
-164 -161 0
-164 -162 0
-164 -163 0
-166 -165 0
-167 -165 0
-167 -166 0
-168 -165 0
-168 -166 0
-168 -167 0
-170 -169 0
-171 -169 0
-171 -170 0
-172 -169 0
-172 -170 0
-172 -171 0
-174 -173 0
-175 -173 0
-175 -174 0
-176 -173 0
-176 -174 0
-176 -175 0
-21 -17 -5 -1 0
-22 -18 -6 -2 0
-23 -19 -7 -3 0
-24 -20 -8 -4 0
-25 -17 -9 -1 0
-26 -18 -10 -2 0
-27 -19 -11 -3 0
-28 -20 -12 -4 0
-25 -21 -9 -5 0
-26 -22 -10 -6 0
-27 -23 -11 -7 0
-28 -24 -12 -8 0
-29 -17 -13 -1 0
-30 -18 -14 -2 0
-31 -19 -15 -3 0
-32 -20 -16 -4 0
-29 -21 -13 -5 0
-30 -22 -14 -6 0
-31 -23 -15 -7 0
-32 -24 -16 -8 0
-29 -25 -13 -9 0
-30 -26 -14 -10 0
-31 -27 -15 -11 0
-32 -28 -16 -12 0
-37 -33 -5 -1 0
-38 -34 -6 -2 0
-39 -35 -7 -3 0
-40 -36 -8 -4 0
-41 -33 -9 -1 0
-42 -34 -10 -2 0
-43 -35 -11 -3 0
-44 -36 -12 -4 0
-41 -37 -9 -5 0
-42 -38 -10 -6 0
-43 -39 -11 -7 0
-44 -40 -12 -8 0
-45 -33 -13 -1 0
-46 -34 -14 -2 0
-47 -35 -15 -3 0
-48 -36 -16 -4 0
-45 -37 -13 -5 0
-46 -38 -14 -6 0
-47 -39 -15 -7 0
-48 -40 -16 -8 0
-45 -41 -13 -9 0
-46 -42 -14 -10 0
-47 -43 -15 -11 0
-48 -44 -16 -12 0
-37 -33 -21 -17 0
-38 -34 -22 -18 0
-39 -35 -23 -19 0
-40 -36 -24 -20 0
-41 -33 -25 -17 0
-42 -34 -26 -18 0
-43 -35 -27 -19 0
-44 -36 -28 -20 0
-41 -37 -25 -21 0
-42 -38 -26 -22 0
-43 -39 -27 -23 0
-44 -40 -28 -24 0
-45 -33 -29 -17 0
-46 -34 -30 -18 0
-47 -35 -31 -19 0
-48 -36 -32 -20 0
-45 -37 -29 -21 0
-46 -38 -30 -22 0
-47 -39 -31 -23 0
-48 -40 -32 -24 0
-45 -41 -29 -25 0
-46 -42 -30 -26 0
-47 -43 -31 -27 0
-48 -44 -32 -28 0
-53 -49 -5 -1 0
-54 -50 -6 -2 0
-55 -51 -7 -3 0
-56 -52 -8 -4 0
-57 -49 -9 -1 0
-58 -50 -10 -2 0
-59 -51 -11 -3 0
-60 -52 -12 -4 0
-57 -53 -9 -5 0
-58 -54 -10 -6 0
-59 -55 -11 -7 0
-60 -56 -12 -8 0
-61 -49 -13 -1 0
-62 -50 -14 -2 0
-63 -51 -15 -3 0
-64 -52 -16 -4 0
-61 -53 -13 -5 0
-62 -54 -14 -6 0
-63 -55 -15 -7 0
-64 -56 -16 -8 0
-61 -57 -13 -9 0
-62 -58 -14 -10 0
-63 -59 -15 -11 0
-64 -60 -16 -12 0
-53 -49 -21 -17 0
-54 -50 -22 -18 0
-55 -51 -23 -19 0
-56 -52 -24 -20 0
-57 -49 -25 -17 0
-58 -50 -26 -18 0
-59 -51 -27 -19 0
-60 -52 -28 -20 0
-57 -53 -25 -21 0
-58 -54 -26 -22 0
-59 -55 -27 -23 0
-60 -56 -28 -24 0
-61 -49 -29 -17 0
-62 -50 -30 -18 0
-63 -51 -31 -19 0
-64 -52 -32 -20 0
-61 -53 -29 -21 0
-62 -54 -30 -22 0
-63 -55 -31 -23 0
-64 -56 -32 -24 0
-61 -57 -29 -25 0
-62 -58 -30 -26 0
-63 -59 -31 -27 0
-64 -60 -32 -28 0
-53 -49 -37 -33 0
-54 -50 -38 -34 0
-55 -51 -39 -35 0
-56 -52 -40 -36 0
-57 -49 -41 -33 0
-58 -50 -42 -34 0
-59 -51 -43 -35 0
-60 -52 -44 -36 0
-57 -53 -41 -37 0
-58 -54 -42 -38 0
-59 -55 -43 -39 0
-60 -56 -44 -40 0
-61 -49 -45 -33 0
-62 -50 -46 -34 0
-63 -51 -47 -35 0
-64 -52 -48 -36 0
-61 -53 -45 -37 0
-62 -54 -46 -38 0
-63 -55 -47 -39 0
-64 -56 -48 -40 0
-61 -57 -45 -41 0
-62 -58 -46 -42 0
-63 -59 -47 -43 0
-64 -60 -48 -44 0
-69 -65 -5 -1 0
-70 -66 -6 -2 0
-71 -67 -7 -3 0
-72 -68 -8 -4 0
-73 -65 -9 -1 0
-74 -66 -10 -2 0
-75 -67 -11 -3 0
-76 -68 -12 -4 0
-73 -69 -9 -5 0
-74 -70 -10 -6 0
-75 -71 -11 -7 0
-76 -72 -12 -8 0
-77 -65 -13 -1 0
-78 -66 -14 -2 0
-79 -67 -15 -3 0
-80 -68 -16 -4 0
-77 -69 -13 -5 0
-78 -70 -14 -6 0
-79 -71 -15 -7 0
-80 -72 -16 -8 0
-77 -73 -13 -9 0
-78 -74 -14 -10 0
-79 -75 -15 -11 0
-80 -76 -16 -12 0
-69 -65 -21 -17 0
-70 -66 -22 -18 0
-71 -67 -23 -19 0
-72 -68 -24 -20 0
-73 -65 -25 -17 0
-74 -66 -26 -18 0
-75 -67 -27 -19 0
-76 -68 -28 -20 0
-73 -69 -25 -21 0
-74 -70 -26 -22 0
-75 -71 -27 -23 0
-76 -72 -28 -24 0
-77 -65 -29 -17 0
-78 -66 -30 -18 0
-79 -67 -31 -19 0
-80 -68 -32 -20 0
-77 -69 -29 -21 0
-78 -70 -30 -22 0
-79 -71 -31 -23 0
-80 -72 -32 -24 0
-77 -73 -29 -25 0
-78 -74 -30 -26 0
-79 -75 -31 -27 0
-80 -76 -32 -28 0
-69 -65 -37 -33 0
-70 -66 -38 -34 0
-71 -67 -39 -35 0
-72 -68 -40 -36 0
-73 -65 -41 -33 0
-74 -66 -42 -34 0
-75 -67 -43 -35 0
-76 -68 -44 -36 0
-73 -69 -41 -37 0
-74 -70 -42 -38 0
-75 -71 -43 -39 0
-76 -72 -44 -40 0
-77 -65 -45 -33 0
-78 -66 -46 -34 0
-79 -67 -47 -35 0
-80 -68 -48 -36 0
-77 -69 -45 -37 0
-78 -70 -46 -38 0
-79 -71 -47 -39 0
-80 -72 -48 -40 0
-77 -73 -45 -41 0
-78 -74 -46 -42 0
-79 -75 -47 -43 0
-80 -76 -48 -44 0
-69 -65 -53 -49 0
-70 -66 -54 -50 0
-71 -67 -55 -51 0
-72 -68 -56 -52 0
-73 -65 -57 -49 0
-74 -66 -58 -50 0
-75 -67 -59 -51 0
-76 -68 -60 -52 0
-73 -69 -57 -53 0
-74 -70 -58 -54 0
-75 -71 -59 -55 0
-76 -72 -60 -56 0
-77 -65 -61 -49 0
-78 -66 -62 -50 0
-79 -67 -63 -51 0
-80 -68 -64 -52 0
-77 -69 -61 -53 0
-78 -70 -62 -54 0
-79 -71 -63 -55 0
-80 -72 -64 -56 0
-77 -73 -61 -57 0
-78 -74 -62 -58 0
-79 -75 -63 -59 0
-80 -76 -64 -60 0
-85 -81 -5 -1 0
-86 -82 -6 -2 0
-87 -83 -7 -3 0
-88 -84 -8 -4 0
-89 -81 -9 -1 0
-90 -82 -10 -2 0
-91 -83 -11 -3 0
-92 -84 -12 -4 0
-89 -85 -9 -5 0
-90 -86 -10 -6 0
-91 -87 -11 -7 0
-92 -88 -12 -8 0
-93 -81 -13 -1 0
-94 -82 -14 -2 0
-95 -83 -15 -3 0
-96 -84 -16 -4 0
-93 -85 -13 -5 0
-94 -86 -14 -6 0
-95 -87 -15 -7 0
-96 -88 -16 -8 0
-93 -89 -13 -9 0
-94 -90 -14 -10 0
-95 -91 -15 -11 0
-96 -92 -16 -12 0
-85 -81 -21 -17 0
-86 -82 -22 -18 0
-87 -83 -23 -19 0
-88 -84 -24 -20 0
-89 -81 -25 -17 0
-90 -82 -26 -18 0
-91 -83 -27 -19 0
-92 -84 -28 -20 0
-89 -85 -25 -21 0
-90 -86 -26 -22 0
-91 -87 -27 -23 0
-92 -88 -28 -24 0
-93 -81 -29 -17 0
-94 -82 -30 -18 0
-95 -83 -31 -19 0
-96 -84 -32 -20 0
-93 -85 -29 -21 0
-94 -86 -30 -22 0
-95 -87 -31 -23 0
-96 -88 -32 -24 0
-93 -89 -29 -25 0
-94 -90 -30 -26 0
-95 -91 -31 -27 0
-96 -92 -32 -28 0
-85 -81 -37 -33 0
-86 -82 -38 -34 0
-87 -83 -39 -35 0
-88 -84 -40 -36 0
-89 -81 -41 -33 0
-90 -82 -42 -34 0
-91 -83 -43 -35 0
-92 -84 -44 -36 0
-89 -85 -41 -37 0
-90 -86 -42 -38 0
-91 -87 -43 -39 0
-92 -88 -44 -40 0
-93 -81 -45 -33 0
-94 -82 -46 -34 0
-95 -83 -47 -35 0
-96 -84 -48 -36 0
-93 -85 -45 -37 0
-94 -86 -46 -38 0
-95 -87 -47 -39 0
-96 -88 -48 -40 0
-93 -89 -45 -41 0
-94 -90 -46 -42 0
-95 -91 -47 -43 0
-96 -92 -48 -44 0
-85 -81 -53 -49 0
-86 -82 -54 -50 0
-87 -83 -55 -51 0
-88 -84 -56 -52 0
-89 -81 -57 -49 0
-90 -82 -58 -50 0
-91 -83 -59 -51 0
-92 -84 -60 -52 0
-89 -85 -57 -53 0
-90 -86 -58 -54 0
-91 -87 -59 -55 0
-92 -88 -60 -56 0
-93 -81 -61 -49 0
-94 -82 -62 -50 0
-95 -83 -63 -51 0
-96 -84 -64 -52 0
-93 -85 -61 -53 0
-94 -86 -62 -54 0
-95 -87 -63 -55 0
-96 -88 -64 -56 0
-93 -89 -61 -57 0
-94 -90 -62 -58 0
-95 -91 -63 -59 0
-96 -92 -64 -60 0
-85 -81 -69 -65 0
-86 -82 -70 -66 0
-87 -83 -71 -67 0
-88 -84 -72 -68 0
-89 -81 -73 -65 0
-90 -82 -74 -66 0
-91 -83 -75 -67 0
-92 -84 -76 -68 0
-89 -85 -73 -69 0
-90 -86 -74 -70 0
-91 -87 -75 -71 0
-92 -88 -76 -72 0
-93 -81 -77 -65 0
-94 -82 -78 -66 0
-95 -83 -79 -67 0
-96 -84 -80 -68 0
-93 -85 -77 -69 0
-94 -86 -78 -70 0
-95 -87 -79 -71 0
-96 -88 -80 -72 0
-93 -89 -77 -73 0
-94 -90 -78 -74 0
-95 -91 -79 -75 0
-96 -92 -80 -76 0
-101 -97 -5 -1 0
-102 -98 -6 -2 0
-103 -99 -7 -3 0
-104 -100 -8 -4 0
-105 -97 -9 -1 0
-106 -98 -10 -2 0
-107 -99 -11 -3 0
-108 -100 -12 -4 0
-105 -101 -9 -5 0
-106 -102 -10 -6 0
-107 -103 -11 -7 0
-108 -104 -12 -8 0
-109 -97 -13 -1 0
-110 -98 -14 -2 0
-111 -99 -15 -3 0
-112 -100 -16 -4 0
-109 -101 -13 -5 0
-110 -102 -14 -6 0
-111 -103 -15 -7 0
-112 -104 -16 -8 0
-109 -105 -13 -9 0
-110 -106 -14 -10 0
-111 -107 -15 -11 0
-112 -108 -16 -12 0
-101 -97 -21 -17 0
-102 -98 -22 -18 0
-103 -99 -23 -19 0
-104 -100 -24 -20 0
-105 -97 -25 -17 0
-106 -98 -26 -18 0
-107 -99 -27 -19 0
-108 -100 -28 -20 0
-105 -101 -25 -21 0
-106 -102 -26 -22 0
-107 -103 -27 -23 0
-108 -104 -28 -24 0
-109 -97 -29 -17 0
-110 -98 -30 -18 0
-111 -99 -31 -19 0
-112 -100 -32 -20 0
-109 -101 -29 -21 0
-110 -102 -30 -22 0
-111 -103 -31 -23 0
-112 -104 -32 -24 0
-109 -105 -29 -25 0
-110 -106 -30 -26 0
-111 -107 -31 -27 0
-112 -108 -32 -28 0
-101 -97 -37 -33 0
-102 -98 -38 -34 0
-103 -99 -39 -35 0
-104 -100 -40 -36 0
-105 -97 -41 -33 0
-106 -98 -42 -34 0
-107 -99 -43 -35 0
-108 -100 -44 -36 0
-105 -101 -41 -37 0
-106 -102 -42 -38 0
-107 -103 -43 -39 0
-108 -104 -44 -40 0
-109 -97 -45 -33 0
-110 -98 -46 -34 0
-111 -99 -47 -35 0
-112 -100 -48 -36 0
-109 -101 -45 -37 0
-110 -102 -46 -38 0
-111 -103 -47 -39 0
-112 -104 -48 -40 0
-109 -105 -45 -41 0
-110 -106 -46 -42 0
-111 -107 -47 -43 0
-112 -108 -48 -44 0
-101 -97 -53 -49 0
-102 -98 -54 -50 0
-103 -99 -55 -51 0
-104 -100 -56 -52 0
-105 -97 -57 -49 0
-106 -98 -58 -50 0
-107 -99 -59 -51 0
-108 -100 -60 -52 0
-105 -101 -57 -53 0
-106 -102 -58 -54 0
-107 -103 -59 -55 0
-108 -104 -60 -56 0
-109 -97 -61 -49 0
-110 -98 -62 -50 0
-111 -99 -63 -51 0
-112 -100 -64 -52 0
-109 -101 -61 -53 0
-110 -102 -62 -54 0
-111 -103 -63 -55 0
-112 -104 -64 -56 0
-109 -105 -61 -57 0
-110 -106 -62 -58 0
-111 -107 -63 -59 0
-112 -108 -64 -60 0
-101 -97 -69 -65 0
-102 -98 -70 -66 0
-103 -99 -71 -67 0
-104 -100 -72 -68 0
-105 -97 -73 -65 0
-106 -98 -74 -66 0
-107 -99 -75 -67 0
-108 -100 -76 -68 0
-105 -101 -73 -69 0
-106 -102 -74 -70 0
-107 -103 -75 -71 0
-108 -104 -76 -72 0
-109 -97 -77 -65 0
-110 -98 -78 -66 0
-111 -99 -79 -67 0
-112 -100 -80 -68 0
-109 -101 -77 -69 0
-110 -102 -78 -70 0
-111 -103 -79 -71 0
-112 -104 -80 -72 0
-109 -105 -77 -73 0
-110 -106 -78 -74 0
-111 -107 -79 -75 0
-112 -108 -80 -76 0
-101 -97 -85 -81 0
-102 -98 -86 -82 0
-103 -99 -87 -83 0
-104 -100 -88 -84 0
-105 -97 -89 -81 0
-106 -98 -90 -82 0
-107 -99 -91 -83 0
-108 -100 -92 -84 0
-105 -101 -89 -85 0
-106 -102 -90 -86 0
-107 -103 -91 -87 0
-108 -104 -92 -88 0
-109 -97 -93 -81 0
-110 -98 -94 -82 0
-111 -99 -95 -83 0
-112 -100 -96 -84 0
-109 -101 -93 -85 0
-110 -102 -94 -86 0
-111 -103 -95 -87 0
-112 -104 -96 -88 0
-109 -105 -93 -89 0
-110 -106 -94 -90 0
-111 -107 -95 -91 0
-112 -108 -96 -92 0
-117 -113 -5 -1 0
-118 -114 -6 -2 0
-119 -115 -7 -3 0
-120 -116 -8 -4 0
-121 -113 -9 -1 0
-122 -114 -10 -2 0
-123 -115 -11 -3 0
-124 -116 -12 -4 0
-121 -117 -9 -5 0
-122 -118 -10 -6 0
-123 -119 -11 -7 0
-124 -120 -12 -8 0
-125 -113 -13 -1 0
-126 -114 -14 -2 0
-127 -115 -15 -3 0
-128 -116 -16 -4 0
-125 -117 -13 -5 0
-126 -118 -14 -6 0
-127 -119 -15 -7 0
-128 -120 -16 -8 0
-125 -121 -13 -9 0
-126 -122 -14 -10 0
-127 -123 -15 -11 0
-128 -124 -16 -12 0
-117 -113 -21 -17 0
-118 -114 -22 -18 0
-119 -115 -23 -19 0
-120 -116 -24 -20 0
-121 -113 -25 -17 0
-122 -114 -26 -18 0
-123 -115 -27 -19 0
-124 -116 -28 -20 0
-121 -117 -25 -21 0
-122 -118 -26 -22 0
-123 -119 -27 -23 0
-124 -120 -28 -24 0
-125 -113 -29 -17 0
-126 -114 -30 -18 0
-127 -115 -31 -19 0
-128 -116 -32 -20 0
-125 -117 -29 -21 0
-126 -118 -30 -22 0
-127 -119 -31 -23 0
-128 -120 -32 -24 0
-125 -121 -29 -25 0
-126 -122 -30 -26 0
-127 -123 -31 -27 0
-128 -124 -32 -28 0
-117 -113 -37 -33 0
-118 -114 -38 -34 0
-119 -115 -39 -35 0
-120 -116 -40 -36 0
-121 -113 -41 -33 0
-122 -114 -42 -34 0
-123 -115 -43 -35 0
-124 -116 -44 -36 0
-121 -117 -41 -37 0
-122 -118 -42 -38 0
-123 -119 -43 -39 0
-124 -120 -44 -40 0
-125 -113 -45 -33 0
-126 -114 -46 -34 0
-127 -115 -47 -35 0
-128 -116 -48 -36 0
-125 -117 -45 -37 0
-126 -118 -46 -38 0
-127 -119 -47 -39 0
-128 -120 -48 -40 0
-125 -121 -45 -41 0
-126 -122 -46 -42 0
-127 -123 -47 -43 0
-128 -124 -48 -44 0
-117 -113 -53 -49 0
-118 -114 -54 -50 0
-119 -115 -55 -51 0
-120 -116 -56 -52 0
-121 -113 -57 -49 0
-122 -114 -58 -50 0
-123 -115 -59 -51 0
-124 -116 -60 -52 0
-121 -117 -57 -53 0
-122 -118 -58 -54 0
-123 -119 -59 -55 0
-124 -120 -60 -56 0
-125 -113 -61 -49 0
-126 -114 -62 -50 0
-127 -115 -63 -51 0
-128 -116 -64 -52 0
-125 -117 -61 -53 0
-126 -118 -62 -54 0
-127 -119 -63 -55 0
-128 -120 -64 -56 0
-125 -121 -61 -57 0
-126 -122 -62 -58 0
-127 -123 -63 -59 0
-128 -124 -64 -60 0
-117 -113 -69 -65 0
-118 -114 -70 -66 0
-119 -115 -71 -67 0
-120 -116 -72 -68 0
-121 -113 -73 -65 0
-122 -114 -74 -66 0
-123 -115 -75 -67 0
-124 -116 -76 -68 0
-121 -117 -73 -69 0
-122 -118 -74 -70 0
-123 -119 -75 -71 0
-124 -120 -76 -72 0
-125 -113 -77 -65 0
-126 -114 -78 -66 0
-127 -115 -79 -67 0
-128 -116 -80 -68 0
-125 -117 -77 -69 0
-126 -118 -78 -70 0
-127 -119 -79 -71 0
-128 -120 -80 -72 0
-125 -121 -77 -73 0
-126 -122 -78 -74 0
-127 -123 -79 -75 0
-128 -124 -80 -76 0
-117 -113 -85 -81 0
-118 -114 -86 -82 0
-119 -115 -87 -83 0
-120 -116 -88 -84 0
-121 -113 -89 -81 0
-122 -114 -90 -82 0
-123 -115 -91 -83 0
-124 -116 -92 -84 0
-121 -117 -89 -85 0
-122 -118 -90 -86 0
-123 -119 -91 -87 0
-124 -120 -92 -88 0
-125 -113 -93 -81 0
-126 -114 -94 -82 0
-127 -115 -95 -83 0
-128 -116 -96 -84 0
-125 -117 -93 -85 0
-126 -118 -94 -86 0
-127 -119 -95 -87 0
-128 -120 -96 -88 0
-125 -121 -93 -89 0
-126 -122 -94 -90 0
-127 -123 -95 -91 0
-128 -124 -96 -92 0
-117 -113 -101 -97 0
-118 -114 -102 -98 0
-119 -115 -103 -99 0
-120 -116 -104 -100 0
-121 -113 -105 -97 0
-122 -114 -106 -98 0
-123 -115 -107 -99 0
-124 -116 -108 -100 0
-121 -117 -105 -101 0
-122 -118 -106 -102 0
-123 -119 -107 -103 0
-124 -120 -108 -104 0
-125 -113 -109 -97 0
-126 -114 -110 -98 0
-127 -115 -111 -99 0
-128 -116 -112 -100 0
-125 -117 -109 -101 0
-126 -118 -110 -102 0
-127 -119 -111 -103 0
-128 -120 -112 -104 0
-125 -121 -109 -105 0
-126 -122 -110 -106 0
-127 -123 -111 -107 0
-128 -124 -112 -108 0
-133 -129 -5 -1 0
-134 -130 -6 -2 0
-135 -131 -7 -3 0
-136 -132 -8 -4 0
-137 -129 -9 -1 0
-138 -130 -10 -2 0
-139 -131 -11 -3 0
-140 -132 -12 -4 0
-137 -133 -9 -5 0
-138 -134 -10 -6 0
-139 -135 -11 -7 0
-140 -136 -12 -8 0
-141 -129 -13 -1 0
-142 -130 -14 -2 0
-143 -131 -15 -3 0
-144 -132 -16 -4 0
-141 -133 -13 -5 0
-142 -134 -14 -6 0
-143 -135 -15 -7 0
-144 -136 -16 -8 0
-141 -137 -13 -9 0
-142 -138 -14 -10 0
-143 -139 -15 -11 0
-144 -140 -16 -12 0
-133 -129 -21 -17 0
-134 -130 -22 -18 0
-135 -131 -23 -19 0
-136 -132 -24 -20 0
-137 -129 -25 -17 0
-138 -130 -26 -18 0
-139 -131 -27 -19 0
-140 -132 -28 -20 0
-137 -133 -25 -21 0
-138 -134 -26 -22 0
-139 -135 -27 -23 0
-140 -136 -28 -24 0
-141 -129 -29 -17 0
-142 -130 -30 -18 0
-143 -131 -31 -19 0
-144 -132 -32 -20 0
-141 -133 -29 -21 0
-142 -134 -30 -22 0
-143 -135 -31 -23 0
-144 -136 -32 -24 0
-141 -137 -29 -25 0
-142 -138 -30 -26 0
-143 -139 -31 -27 0
-144 -140 -32 -28 0
-133 -129 -37 -33 0
-134 -130 -38 -34 0
-135 -131 -39 -35 0
-136 -132 -40 -36 0
-137 -129 -41 -33 0
-138 -130 -42 -34 0
-139 -131 -43 -35 0
-140 -132 -44 -36 0
-137 -133 -41 -37 0
-138 -134 -42 -38 0
-139 -135 -43 -39 0
-140 -136 -44 -40 0
-141 -129 -45 -33 0
-142 -130 -46 -34 0
-143 -131 -47 -35 0
-144 -132 -48 -36 0
-141 -133 -45 -37 0
-142 -134 -46 -38 0
-143 -135 -47 -39 0
-144 -136 -48 -40 0
-141 -137 -45 -41 0
-142 -138 -46 -42 0
-143 -139 -47 -43 0
-144 -140 -48 -44 0
-133 -129 -53 -49 0
-134 -130 -54 -50 0
-135 -131 -55 -51 0
-136 -132 -56 -52 0
-137 -129 -57 -49 0
-138 -130 -58 -50 0
-139 -131 -59 -51 0
-140 -132 -60 -52 0
-137 -133 -57 -53 0
-138 -134 -58 -54 0
-139 -135 -59 -55 0
-140 -136 -60 -56 0
-141 -129 -61 -49 0
-142 -130 -62 -50 0
-143 -131 -63 -51 0
-144 -132 -64 -52 0
-141 -133 -61 -53 0
-142 -134 -62 -54 0
-143 -135 -63 -55 0
-144 -136 -64 -56 0
-141 -137 -61 -57 0
-142 -138 -62 -58 0
-143 -139 -63 -59 0
-144 -140 -64 -60 0
-133 -129 -69 -65 0
-134 -130 -70 -66 0
-135 -131 -71 -67 0
-136 -132 -72 -68 0
-137 -129 -73 -65 0
-138 -130 -74 -66 0
-139 -131 -75 -67 0
-140 -132 -76 -68 0
-137 -133 -73 -69 0
-138 -134 -74 -70 0
-139 -135 -75 -71 0
-140 -136 -76 -72 0
-141 -129 -77 -65 0
-142 -130 -78 -66 0
-143 -131 -79 -67 0
-144 -132 -80 -68 0
-141 -133 -77 -69 0
-142 -134 -78 -70 0
-143 -135 -79 -71 0
-144 -136 -80 -72 0
-141 -137 -77 -73 0
-142 -138 -78 -74 0
-143 -139 -79 -75 0
-144 -140 -80 -76 0
-133 -129 -85 -81 0
-134 -130 -86 -82 0
-135 -131 -87 -83 0
-136 -132 -88 -84 0
-137 -129 -89 -81 0
-138 -130 -90 -82 0
-139 -131 -91 -83 0
-140 -132 -92 -84 0
-137 -133 -89 -85 0
-138 -134 -90 -86 0
-139 -135 -91 -87 0
-140 -136 -92 -88 0
-141 -129 -93 -81 0
-142 -130 -94 -82 0
-143 -131 -95 -83 0
-144 -132 -96 -84 0
-141 -133 -93 -85 0
-142 -134 -94 -86 0
-143 -135 -95 -87 0
-144 -136 -96 -88 0
-141 -137 -93 -89 0
-142 -138 -94 -90 0
-143 -139 -95 -91 0
-144 -140 -96 -92 0
-133 -129 -101 -97 0
-134 -130 -102 -98 0
-135 -131 -103 -99 0
-136 -132 -104 -100 0
-137 -129 -105 -97 0
-138 -130 -106 -98 0
-139 -131 -107 -99 0
-140 -132 -108 -100 0
-137 -133 -105 -101 0
-138 -134 -106 -102 0
-139 -135 -107 -103 0
-140 -136 -108 -104 0
-141 -129 -109 -97 0
-142 -130 -110 -98 0
-143 -131 -111 -99 0
-144 -132 -112 -100 0
-141 -133 -109 -101 0
-142 -134 -110 -102 0
-143 -135 -111 -103 0
-144 -136 -112 -104 0
-141 -137 -109 -105 0
-142 -138 -110 -106 0
-143 -139 -111 -107 0
-144 -140 -112 -108 0
-133 -129 -117 -113 0
-134 -130 -118 -114 0
-135 -131 -119 -115 0
-136 -132 -120 -116 0
-137 -129 -121 -113 0
-138 -130 -122 -114 0
-139 -131 -123 -115 0
-140 -132 -124 -116 0
-137 -133 -121 -117 0
-138 -134 -122 -118 0
-139 -135 -123 -119 0
-140 -136 -124 -120 0
-141 -129 -125 -113 0
-142 -130 -126 -114 0
-143 -131 -127 -115 0
-144 -132 -128 -116 0
-141 -133 -125 -117 0
-142 -134 -126 -118 0
-143 -135 -127 -119 0
-144 -136 -128 -120 0
-141 -137 -125 -121 0
-142 -138 -126 -122 0
-143 -139 -127 -123 0
-144 -140 -128 -124 0
-149 -145 -5 -1 0
-150 -146 -6 -2 0
-151 -147 -7 -3 0
-152 -148 -8 -4 0
-153 -145 -9 -1 0
-154 -146 -10 -2 0
-155 -147 -11 -3 0
-156 -148 -12 -4 0
-153 -149 -9 -5 0
-154 -150 -10 -6 0
-155 -151 -11 -7 0
-156 -152 -12 -8 0
-157 -145 -13 -1 0
-158 -146 -14 -2 0
-159 -147 -15 -3 0
-160 -148 -16 -4 0
-157 -149 -13 -5 0
-158 -150 -14 -6 0
-159 -151 -15 -7 0
-160 -152 -16 -8 0
-157 -153 -13 -9 0
-158 -154 -14 -10 0
-159 -155 -15 -11 0
-160 -156 -16 -12 0
-149 -145 -21 -17 0
-150 -146 -22 -18 0
-151 -147 -23 -19 0
-152 -148 -24 -20 0
-153 -145 -25 -17 0
-154 -146 -26 -18 0
-155 -147 -27 -19 0
-156 -148 -28 -20 0
-153 -149 -25 -21 0
-154 -150 -26 -22 0
-155 -151 -27 -23 0
-156 -152 -28 -24 0
-157 -145 -29 -17 0
-158 -146 -30 -18 0
-159 -147 -31 -19 0
-160 -148 -32 -20 0
-157 -149 -29 -21 0
-158 -150 -30 -22 0
-159 -151 -31 -23 0
-160 -152 -32 -24 0
-157 -153 -29 -25 0
-158 -154 -30 -26 0
-159 -155 -31 -27 0
-160 -156 -32 -28 0
-149 -145 -37 -33 0
-150 -146 -38 -34 0
-151 -147 -39 -35 0
-152 -148 -40 -36 0
-153 -145 -41 -33 0
-154 -146 -42 -34 0
-155 -147 -43 -35 0
-156 -148 -44 -36 0
-153 -149 -41 -37 0
-154 -150 -42 -38 0
-155 -151 -43 -39 0
-156 -152 -44 -40 0
-157 -145 -45 -33 0
-158 -146 -46 -34 0
-159 -147 -47 -35 0
-160 -148 -48 -36 0
-157 -149 -45 -37 0
-158 -150 -46 -38 0
-159 -151 -47 -39 0
-160 -152 -48 -40 0
-157 -153 -45 -41 0
-158 -154 -46 -42 0
-159 -155 -47 -43 0
-160 -156 -48 -44 0
-149 -145 -53 -49 0
-150 -146 -54 -50 0
-151 -147 -55 -51 0
-152 -148 -56 -52 0
-153 -145 -57 -49 0
-154 -146 -58 -50 0
-155 -147 -59 -51 0
-156 -148 -60 -52 0
-153 -149 -57 -53 0
-154 -150 -58 -54 0
-155 -151 -59 -55 0
-156 -152 -60 -56 0
-157 -145 -61 -49 0
-158 -146 -62 -50 0
-159 -147 -63 -51 0
-160 -148 -64 -52 0
-157 -149 -61 -53 0
-158 -150 -62 -54 0
-159 -151 -63 -55 0
-160 -152 -64 -56 0
-157 -153 -61 -57 0
-158 -154 -62 -58 0
-159 -155 -63 -59 0
-160 -156 -64 -60 0
-149 -145 -69 -65 0
-150 -146 -70 -66 0
-151 -147 -71 -67 0
-152 -148 -72 -68 0
-153 -145 -73 -65 0
-154 -146 -74 -66 0
-155 -147 -75 -67 0
-156 -148 -76 -68 0
-153 -149 -73 -69 0
-154 -150 -74 -70 0
-155 -151 -75 -71 0
-156 -152 -76 -72 0
-157 -145 -77 -65 0
-158 -146 -78 -66 0
-159 -147 -79 -67 0
-160 -148 -80 -68 0
-157 -149 -77 -69 0
-158 -150 -78 -70 0
-159 -151 -79 -71 0
-160 -152 -80 -72 0
-157 -153 -77 -73 0
-158 -154 -78 -74 0
-159 -155 -79 -75 0
-160 -156 -80 -76 0
-149 -145 -85 -81 0
-150 -146 -86 -82 0
-151 -147 -87 -83 0
-152 -148 -88 -84 0
-153 -145 -89 -81 0
-154 -146 -90 -82 0
-155 -147 -91 -83 0
-156 -148 -92 -84 0
-153 -149 -89 -85 0
-154 -150 -90 -86 0
-155 -151 -91 -87 0
-156 -152 -92 -88 0
-157 -145 -93 -81 0
-158 -146 -94 -82 0
-159 -147 -95 -83 0
-160 -148 -96 -84 0
-157 -149 -93 -85 0
-158 -150 -94 -86 0
-159 -151 -95 -87 0
-160 -152 -96 -88 0
-157 -153 -93 -89 0
-158 -154 -94 -90 0
-159 -155 -95 -91 0
-160 -156 -96 -92 0
-149 -145 -101 -97 0
-150 -146 -102 -98 0
-151 -147 -103 -99 0
-152 -148 -104 -100 0
-153 -145 -105 -97 0
-154 -146 -106 -98 0
-155 -147 -107 -99 0
-156 -148 -108 -100 0
-153 -149 -105 -101 0
-154 -150 -106 -102 0
-155 -151 -107 -103 0
-156 -152 -108 -104 0
-157 -145 -109 -97 0
-158 -146 -110 -98 0
-159 -147 -111 -99 0
-160 -148 -112 -100 0
-157 -149 -109 -101 0
-158 -150 -110 -102 0
-159 -151 -111 -103 0
-160 -152 -112 -104 0
-157 -153 -109 -105 0
-158 -154 -110 -106 0
-159 -155 -111 -107 0
-160 -156 -112 -108 0
-149 -145 -117 -113 0
-150 -146 -118 -114 0
-151 -147 -119 -115 0
-152 -148 -120 -116 0
-153 -145 -121 -113 0
-154 -146 -122 -114 0
-155 -147 -123 -115 0
-156 -148 -124 -116 0
-153 -149 -121 -117 0
-154 -150 -122 -118 0
-155 -151 -123 -119 0
-156 -152 -124 -120 0
-157 -145 -125 -113 0
-158 -146 -126 -114 0
-159 -147 -127 -115 0
-160 -148 -128 -116 0
-157 -149 -125 -117 0
-158 -150 -126 -118 0
-159 -151 -127 -119 0
-160 -152 -128 -120 0
-157 -153 -125 -121 0
-158 -154 -126 -122 0
-159 -155 -127 -123 0
-160 -156 -128 -124 0
-149 -145 -133 -129 0
-150 -146 -134 -130 0
-151 -147 -135 -131 0
-152 -148 -136 -132 0
-153 -145 -137 -129 0
-154 -146 -138 -130 0
-155 -147 -139 -131 0
-156 -148 -140 -132 0
-153 -149 -137 -133 0
-154 -150 -138 -134 0
-155 -151 -139 -135 0
-156 -152 -140 -136 0
-157 -145 -141 -129 0
-158 -146 -142 -130 0
-159 -147 -143 -131 0
-160 -148 -144 -132 0
-157 -149 -141 -133 0
-158 -150 -142 -134 0
-159 -151 -143 -135 0
-160 -152 -144 -136 0
-157 -153 -141 -137 0
-158 -154 -142 -138 0
-159 -155 -143 -139 0
-160 -156 -144 -140 0
-165 -161 -5 -1 0
-166 -162 -6 -2 0
-167 -163 -7 -3 0
-168 -164 -8 -4 0
-169 -161 -9 -1 0
-170 -162 -10 -2 0
-171 -163 -11 -3 0
-172 -164 -12 -4 0
-169 -165 -9 -5 0
-170 -166 -10 -6 0
-171 -167 -11 -7 0
-172 -168 -12 -8 0
-173 -161 -13 -1 0
-174 -162 -14 -2 0
-175 -163 -15 -3 0
-176 -164 -16 -4 0
-173 -165 -13 -5 0
-174 -166 -14 -6 0
-175 -167 -15 -7 0
-176 -168 -16 -8 0
-173 -169 -13 -9 0
-174 -170 -14 -10 0
-175 -171 -15 -11 0
-176 -172 -16 -12 0
-165 -161 -21 -17 0
-166 -162 -22 -18 0
-167 -163 -23 -19 0
-168 -164 -24 -20 0
-169 -161 -25 -17 0
-170 -162 -26 -18 0
-171 -163 -27 -19 0
-172 -164 -28 -20 0
-169 -165 -25 -21 0
-170 -166 -26 -22 0
-171 -167 -27 -23 0
-172 -168 -28 -24 0
-173 -161 -29 -17 0
-174 -162 -30 -18 0
-175 -163 -31 -19 0
-176 -164 -32 -20 0
-173 -165 -29 -21 0
-174 -166 -30 -22 0
-175 -167 -31 -23 0
-176 -168 -32 -24 0
-173 -169 -29 -25 0
-174 -170 -30 -26 0
-175 -171 -31 -27 0
-176 -172 -32 -28 0
-165 -161 -37 -33 0
-166 -162 -38 -34 0
-167 -163 -39 -35 0
-168 -164 -40 -36 0
-169 -161 -41 -33 0
-170 -162 -42 -34 0
-171 -163 -43 -35 0
-172 -164 -44 -36 0
-169 -165 -41 -37 0
-170 -166 -42 -38 0
-171 -167 -43 -39 0
-172 -168 -44 -40 0
-173 -161 -45 -33 0
-174 -162 -46 -34 0
-175 -163 -47 -35 0
-176 -164 -48 -36 0
-173 -165 -45 -37 0
-174 -166 -46 -38 0
-175 -167 -47 -39 0
-176 -168 -48 -40 0
-173 -169 -45 -41 0
-174 -170 -46 -42 0
-175 -171 -47 -43 0
-176 -172 -48 -44 0
-165 -161 -53 -49 0
-166 -162 -54 -50 0
-167 -163 -55 -51 0
-168 -164 -56 -52 0
-169 -161 -57 -49 0
-170 -162 -58 -50 0
-171 -163 -59 -51 0
-172 -164 -60 -52 0
-169 -165 -57 -53 0
-170 -166 -58 -54 0
-171 -167 -59 -55 0
-172 -168 -60 -56 0
-173 -161 -61 -49 0
-174 -162 -62 -50 0
-175 -163 -63 -51 0
-176 -164 -64 -52 0
-173 -165 -61 -53 0
-174 -166 -62 -54 0
-175 -167 -63 -55 0
-176 -168 -64 -56 0
-173 -169 -61 -57 0
-174 -170 -62 -58 0
-175 -171 -63 -59 0
-176 -172 -64 -60 0
-165 -161 -69 -65 0
-166 -162 -70 -66 0
-167 -163 -71 -67 0
-168 -164 -72 -68 0
-169 -161 -73 -65 0
-170 -162 -74 -66 0
-171 -163 -75 -67 0
-172 -164 -76 -68 0
-169 -165 -73 -69 0
-170 -166 -74 -70 0
-171 -167 -75 -71 0
-172 -168 -76 -72 0
-173 -161 -77 -65 0
-174 -162 -78 -66 0
-175 -163 -79 -67 0
-176 -164 -80 -68 0
-173 -165 -77 -69 0
-174 -166 -78 -70 0
-175 -167 -79 -71 0
-176 -168 -80 -72 0
-173 -169 -77 -73 0
-174 -170 -78 -74 0
-175 -171 -79 -75 0
-176 -172 -80 -76 0
-165 -161 -85 -81 0
-166 -162 -86 -82 0
-167 -163 -87 -83 0
-168 -164 -88 -84 0
-169 -161 -89 -81 0
-170 -162 -90 -82 0
-171 -163 -91 -83 0
-172 -164 -92 -84 0
-169 -165 -89 -85 0
-170 -166 -90 -86 0
-171 -167 -91 -87 0
-172 -168 -92 -88 0
-173 -161 -93 -81 0
-174 -162 -94 -82 0
-175 -163 -95 -83 0
-176 -164 -96 -84 0
-173 -165 -93 -85 0
-174 -166 -94 -86 0
-175 -167 -95 -87 0
-176 -168 -96 -88 0
-173 -169 -93 -89 0
-174 -170 -94 -90 0
-175 -171 -95 -91 0
-176 -172 -96 -92 0
-165 -161 -101 -97 0
-166 -162 -102 -98 0
-167 -163 -103 -99 0
-168 -164 -104 -100 0
-169 -161 -105 -97 0
-170 -162 -106 -98 0
-171 -163 -107 -99 0
-172 -164 -108 -100 0
-169 -165 -105 -101 0
-170 -166 -106 -102 0
-171 -167 -107 -103 0
-172 -168 -108 -104 0
-173 -161 -109 -97 0
-174 -162 -110 -98 0
-175 -163 -111 -99 0
-176 -164 -112 -100 0
-173 -165 -109 -101 0
-174 -166 -110 -102 0
-175 -167 -111 -103 0
-176 -168 -112 -104 0
-173 -169 -109 -105 0
-174 -170 -110 -106 0
-175 -171 -111 -107 0
-176 -172 -112 -108 0
-165 -161 -117 -113 0
-166 -162 -118 -114 0
-167 -163 -119 -115 0
-168 -164 -120 -116 0
-169 -161 -121 -113 0
-170 -162 -122 -114 0
-171 -163 -123 -115 0
-172 -164 -124 -116 0
-169 -165 -121 -117 0
-170 -166 -122 -118 0
-171 -167 -123 -119 0
-172 -168 -124 -120 0
-173 -161 -125 -113 0
-174 -162 -126 -114 0
-175 -163 -127 -115 0
-176 -164 -128 -116 0
-173 -165 -125 -117 0
-174 -166 -126 -118 0
-175 -167 -127 -119 0
-176 -168 -128 -120 0
-173 -169 -125 -121 0
-174 -170 -126 -122 0
-175 -171 -127 -123 0
-176 -172 -128 -124 0
-165 -161 -133 -129 0
-166 -162 -134 -130 0
-167 -163 -135 -131 0
-168 -164 -136 -132 0
-169 -161 -137 -129 0
-170 -162 -138 -130 0
-171 -163 -139 -131 0
-172 -164 -140 -132 0
-169 -165 -137 -133 0
-170 -166 -138 -134 0
-171 -167 -139 -135 0
-172 -168 -140 -136 0
-173 -161 -141 -129 0
-174 -162 -142 -130 0
-175 -163 -143 -131 0
-176 -164 -144 -132 0
-173 -165 -141 -133 0
-174 -166 -142 -134 0
-175 -167 -143 -135 0
-176 -168 -144 -136 0
-173 -169 -141 -137 0
-174 -170 -142 -138 0
-175 -171 -143 -139 0
-176 -172 -144 -140 0
-165 -161 -149 -145 0
-166 -162 -150 -146 0
-167 -163 -151 -147 0
-168 -164 -152 -148 0
-169 -161 -153 -145 0
-170 -162 -154 -146 0
-171 -163 -155 -147 0
-172 -164 -156 -148 0
-169 -165 -153 -149 0
-170 -166 -154 -150 0
-171 -167 -155 -151 0
-172 -168 -156 -152 0
-173 -161 -157 -145 0
-174 -162 -158 -146 0
-175 -163 -159 -147 0
-176 -164 -160 -148 0
-173 -165 -157 -149 0
-174 -166 -158 -150 0
-175 -167 -159 -151 0
-176 -168 -160 -152 0
-173 -169 -157 -153 0
-174 -170 -158 -154 0
-175 -171 -159 -155 0
-176 -172 -160 -156 0
